NAME : kroB100-R-5-0-a.50781.tour
COMMENT : Length = 50781
COMMENT : Found by LKH-3 [Keld Helsgaun] Tue Jul 30 13:14:56 2024
TYPE : TOUR
DIMENSION : 100
TOUR_SECTION
1
71
27
61
7
74
42
51
31
13
78
17
36
44
79
86
21
73
53
70
67
62
56
75
49
85
11
3
91
97
76
95
57
66
6
82
63
18
50
23
22
55
77
48
64
33
4
87
43
72
37
81
30
80
46
94
35
98
29
99
32
28
93
10
40
100
65
20
38
34
84
54
60
83
14
2
16
96
19
92
41
45
24
15
89
58
52
88
47
26
69
5
39
68
90
25
9
12
59
8
-1
EOF
